
n_res = 6;
rcap = [25, 24, 1199, 1233, 1146, 1201];
rtype = [1, 1, 2, 2, 2, 2];
n_tasks = 100;
modes =  [{1, 2, 3, 4, 5, 6}, {7, 8, 9, 10, 11, 12}, {13, 14, 15, 16, 17, 18}, {19, 20, 21, 22, 23, 24}, {25, 26, 27, 28, 29, 30}, {31, 32, 33, 34, 35, 36}, {37, 38, 39, 40, 41, 42}, {43, 44, 45, 46, 47, 48}, {49, 50, 51, 52, 53, 54}, {55, 56, 57, 58, 59, 60}, {61, 62, 63, 64, 65, 66}, {67, 68, 69, 70, 71, 72}, {73, 74, 75, 76, 77, 78}, {79, 80, 81, 82, 83, 84}, {85, 86, 87, 88, 89, 90}, {91, 92, 93, 94, 95, 96}, {97, 98, 99, 100, 101, 102}, {103, 104, 105, 106, 107, 108}, {109, 110, 111, 112, 113, 114}, {115, 116, 117, 118, 119, 120}, {121, 122, 123, 124, 125, 126}, {127, 128, 129, 130, 131, 132}, {133, 134, 135, 136, 137, 138}, {139, 140, 141, 142, 143, 144}, {145, 146, 147, 148, 149, 150}, {151, 152, 153, 154, 155, 156}, {157, 158, 159, 160, 161, 162}, {163, 164, 165, 166, 167, 168}, {169, 170, 171, 172, 173, 174}, {175, 176, 177, 178, 179, 180}, {181, 182, 183, 184, 185, 186}, {187, 188, 189, 190, 191, 192}, {193, 194, 195, 196, 197, 198}, {199, 200, 201, 202, 203, 204}, {205, 206, 207, 208, 209, 210}, {211, 212, 213, 214, 215, 216}, {217, 218, 219, 220, 221, 222}, {223, 224, 225, 226, 227, 228}, {229, 230, 231, 232, 233, 234}, {235, 236, 237, 238, 239, 240}, {241, 242, 243, 244, 245, 246}, {247, 248, 249, 250, 251, 252}, {253, 254, 255, 256, 257, 258}, {259, 260, 261, 262, 263, 264}, {265, 266, 267, 268, 269, 270}, {271, 272, 273, 274, 275, 276}, {277, 278, 279, 280, 281, 282}, {283, 284, 285, 286, 287, 288}, {289, 290, 291, 292, 293, 294}, {295, 296, 297, 298, 299, 300}, {301, 302, 303, 304, 305, 306}, {307, 308, 309, 310, 311, 312}, {313, 314, 315, 316, 317, 318}, {319, 320, 321, 322, 323, 324}, {325, 326, 327, 328, 329, 330}, {331, 332, 333, 334, 335, 336}, {337, 338, 339, 340, 341, 342}, {343, 344, 345, 346, 347, 348}, {349, 350, 351, 352, 353, 354}, {355, 356, 357, 358, 359, 360}, {361, 362, 363, 364, 365, 366}, {367, 368, 369, 370, 371, 372}, {373, 374, 375, 376, 377, 378}, {379, 380, 381, 382, 383, 384}, {385, 386, 387, 388, 389, 390}, {391, 392, 393, 394, 395, 396}, {397, 398, 399, 400, 401, 402}, {403, 404, 405, 406, 407, 408}, {409, 410, 411, 412, 413, 414}, {415, 416, 417, 418, 419, 420}, {421, 422, 423, 424, 425, 426}, {427, 428, 429, 430, 431, 432}, {433, 434, 435, 436, 437, 438}, {439, 440, 441, 442, 443, 444}, {445, 446, 447, 448, 449, 450}, {451, 452, 453, 454, 455, 456}, {457, 458, 459, 460, 461, 462}, {463, 464, 465, 466, 467, 468}, {469, 470, 471, 472, 473, 474}, {475, 476, 477, 478, 479, 480}, {481, 482, 483, 484, 485, 486}, {487, 488, 489, 490, 491, 492}, {493, 494, 495, 496, 497, 498}, {499, 500, 501, 502, 503, 504}, {505, 506, 507, 508, 509, 510}, {511, 512, 513, 514, 515, 516}, {517, 518, 519, 520, 521, 522}, {523, 524, 525, 526, 527, 528}, {529, 530, 531, 532, 533, 534}, {535, 536, 537, 538, 539, 540}, {541, 542, 543, 544, 545, 546}, {547, 548, 549, 550, 551, 552}, {553, 554, 555, 556, 557, 558}, {559, 560, 561, 562, 563, 564}, {565, 566, 567, 568, 569, 570}, {571, 572, 573, 574, 575, 576}, {577, 578, 579, 580, 581, 582}, {583, 584, 585, 586, 587, 588}, {589, 590, 591, 592, 593, 594}, {595, 596, 597, 598, 599, 600}];
succ =  [{99, 97, 67, 60, 52, 50, 46, 40, 39, 25, 8}, {67, 58, 55, 53, 52, 47, 40, 30, 25, 8}, {99, 97, 95, 93, 91, 59, 56, 50, 47, 41, 39, 37, 32, 24, 17}, {100, 98, 95, 93, 88, 87, 82, 68, 65, 58, 57, 56, 55, 50, 45, 44, 34, 21}, {100, 94, 90, 68, 59, 55, 51, 47, 46, 31, 30, 12}, {98, 97, 96, 68, 67, 63, 61, 60, 58, 56, 54, 51, 50, 47, 34, 30, 25}, {92, 86, 68, 65, 64, 58, 56, 52, 49, 45, 44, 42, 39, 37, 34}, {98, 96, 95, 94, 90, 87, 84, 68, 65, 63, 59, 51, 44, 41, 38, 29}, {99, 97, 96, 95, 94, 91, 90, 87, 86, 83, 82, 81, 80, 65, 63, 58, 56, 55, 51, 46, 45}, {98, 97, 94, 93, 90, 89, 88, 86, 85, 84, 67, 65, 62, 56, 49, 45, 32}, {97, 96, 95, 88, 86, 83, 68, 63, 56, 55, 54, 49, 30}, {97, 92, 91, 84, 67, 65, 63, 62, 56, 50, 49, 29}, {100, 93, 91, 90, 89, 88, 87, 84, 82, 80, 79, 73, 64, 63, 56, 54, 44, 38}, {97, 93, 90, 88, 87, 86, 85, 83, 81, 79, 78, 76, 75, 68, 65, 64, 63, 61, 58, 54, 51}, {95, 93, 91, 89, 88, 86, 84, 83, 82, 81, 78, 67, 65, 62, 59, 49, 45}, {99, 97, 95, 91, 89, 88, 87, 83, 82, 81, 78, 73, 68, 67, 66, 63, 62, 60, 54, 50}, {96, 94, 90, 87, 86, 85, 83, 82, 81, 78, 64, 63, 61, 60, 58, 51, 45}, {99, 94, 91, 88, 85, 83, 82, 79, 77, 68, 67, 65, 64, 62, 56, 55, 49}, {92, 86, 77, 74, 71, 66, 61, 58, 39, 34}, {96, 93, 90, 87, 84, 81, 68, 65, 64, 62, 61, 60, 59, 52, 45}, {94, 92, 90, 89, 84, 83, 81, 75, 67, 64, 62, 60, 52, 38}, {89, 88, 87, 86, 83, 81, 77, 74, 72, 71, 65, 61, 59, 55, 52}, {95, 94, 86, 82, 81, 79, 78, 77, 75, 74, 73, 72, 68, 63, 49}, {89, 87, 85, 83, 82, 81, 77, 75, 74, 73, 72, 71, 67, 66, 65, 63, 61}, {93, 92, 88, 86, 83, 82, 80, 78, 77, 76, 74, 73, 71, 70, 64, 62}, {90, 86, 82, 81, 77, 72, 67, 66, 61, 50}, {88, 83, 82, 77, 76, 75, 74, 73, 71, 66, 65, 64, 56}, {95, 89, 82, 79, 78, 76, 73, 72, 65, 63, 61, 54}, {88, 85, 83, 82, 81, 78, 69, 45}, {91, 85, 84, 82, 81, 79, 78, 77, 75, 74, 65, 64, 62}, {87, 86, 84, 77, 76, 75, 74, 73, 71, 70, 64, 62, 61}, {87, 83, 82, 81, 80, 79, 76, 73, 72, 69, 54}, {93, 81, 80, 79, 78, 75, 73, 65, 61, 54}, {91, 90, 89, 84, 83, 80, 79, 78, 75, 73, 70, 69, 62}, {96, 86, 81, 80, 75, 71, 70, 64, 63, 62, 61}, {86, 81, 79, 76, 73, 72, 67, 54}, {87, 84, 83, 67, 61, 51}, {86, 85, 78, 77, 76, 74, 72, 71, 69, 66}, {88, 85, 82, 81, 78, 76, 75, 73, 70, 63}, {88, 79, 77, 49}, {92, 86, 85, 82, 80, 78, 73, 71, 70, 69}, {85, 81, 79, 74, 72, 71, 70, 63}, {90, 80, 79, 78, 74, 71, 69, 65}, {85, 83, 75, 71, 70, 62, 61}, {79, 76, 75, 73, 54}, {89, 88, 79, 75, 74, 73, 64}, {89, 88, 79, 75, 74, 71, 69}, {96, 87, 86, 76, 75, 62}, {87, 76, 71, 66, 61}, {85, 76, 75, 71, 64}, {89, 73, 71, 62}, {79, 78, 76, 63}, {84, 74, 71, 61}, {77, 74, 71, 70}, {84, 78, 75, 73}, {78, 72, 70}, {81, 73, 69}, {84, 73}, {80, 70}, {74, 70}, {69}, {72}, {69}, {69}, {70}, {70}, {80}, {80}, {}, {}, {}, {}, {}, {}, {}, {}, {}, {}, {}, {}, {}, {}, {}, {}, {}, {}, {}, {}, {}, {}, {}, {}, {}, {}, {}, {}, {}, {}, {}, {}];
n_opt = 600;
dur = [6, 8, 12, 13, 14, 17, 1, 2, 3, 4, 5, 8, 9, 12, 13, 14, 15, 17, 7, 8, 9, 15, 17, 18, 3, 4, 5, 15, 18, 20, 2, 3, 5, 8, 10, 19, 2, 3, 4, 6, 17, 20, 4, 8, 9, 14, 18, 20, 4, 9, 12, 14, 15, 16, 1, 7, 8, 9, 10, 15, 1, 6, 8, 12, 14, 19, 4, 8, 9, 10, 19, 20, 3, 6, 11, 13, 15, 20, 1, 7, 9, 10, 11, 13, 8, 10, 11, 13, 16, 17, 1, 9, 10, 12, 14, 20, 2, 3, 4, 6, 15, 20, 2, 3, 8, 10, 19, 20, 3, 6, 7, 10, 16, 17, 7, 16, 17, 18, 19, 20, 2, 3, 6, 7, 8, 15, 1, 3, 6, 14, 18, 20, 2, 4, 11, 13, 14, 15, 4, 11, 13, 14, 19, 20, 5, 8, 12, 13, 18, 20, 4, 5, 6, 12, 13, 16, 7, 8, 15, 16, 18, 19, 1, 2, 3, 6, 10, 15, 1, 10, 12, 14, 15, 17, 4, 7, 10, 14, 15, 18, 1, 7, 8, 13, 15, 16, 1, 2, 3, 5, 6, 15, 5, 7, 9, 10, 13, 18, 2, 3, 7, 8, 13, 16, 10, 11, 16, 17, 18, 19, 1, 2, 3, 13, 17, 18, 3, 5, 8, 12, 13, 15, 3, 9, 10, 15, 17, 18, 5, 6, 10, 13, 14, 15, 9, 12, 13, 17, 18, 19, 2, 9, 16, 18, 19, 20, 2, 3, 4, 7, 14, 18, 6, 7, 14, 15, 16, 17, 3, 7, 9, 10, 15, 17, 6, 11, 12, 13, 16, 17, 1, 3, 13, 16, 17, 18, 1, 2, 8, 9, 13, 15, 1, 3, 5, 6, 15, 17, 1, 2, 3, 4, 8, 18, 1, 8, 11, 12, 17, 18, 2, 13, 14, 15, 16, 18, 1, 2, 11, 15, 16, 19, 4, 7, 8, 10, 16, 19, 3, 6, 11, 12, 15, 17, 5, 6, 7, 12, 18, 20, 1, 2, 4, 11, 12, 18, 1, 3, 4, 7, 17, 18, 2, 3, 4, 5, 10, 14, 2, 3, 4, 16, 18, 20, 4, 5, 8, 13, 14, 16, 1, 2, 3, 5, 9, 19, 2, 5, 6, 8, 9, 13, 1, 4, 5, 8, 15, 18, 1, 7, 14, 16, 17, 19, 1, 3, 12, 13, 14, 19, 3, 5, 7, 8, 15, 20, 2, 7, 11, 12, 15, 16, 6, 11, 13, 15, 16, 19, 4, 6, 7, 12, 17, 20, 3, 6, 7, 10, 12, 15, 3, 4, 14, 15, 17, 18, 5, 6, 12, 13, 16, 18, 4, 5, 6, 9, 11, 18, 7, 11, 12, 15, 17, 20, 6, 8, 10, 14, 17, 18, 2, 4, 5, 12, 14, 15, 1, 3, 6, 10, 17, 20, 2, 9, 12, 13, 14, 15, 1, 3, 6, 8, 9, 10, 2, 3, 10, 11, 12, 14, 2, 4, 10, 11, 13, 16, 5, 6, 8, 11, 19, 20, 8, 9, 11, 15, 16, 17, 1, 3, 5, 9, 11, 13, 1, 4, 9, 11, 14, 20, 1, 2, 4, 6, 13, 20, 1, 8, 11, 14, 18, 19, 3, 6, 11, 12, 13, 19, 4, 7, 9, 13, 19, 20, 4, 5, 8, 9, 19, 20, 8, 11, 12, 13, 14, 15, 1, 5, 8, 10, 14, 15, 1, 3, 9, 11, 19, 20, 3, 8, 10, 17, 18, 19, 2, 6, 11, 16, 17, 18, 4, 5, 6, 7, 12, 20, 1, 4, 10, 16, 17, 18, 1, 2, 10, 12, 13, 14, 1, 2, 5, 6, 7, 18, 8, 9, 10, 11, 13, 14];
rreq = [|3, 3, 3, 3, 2, 2, 4, 4, 4, 4, 4, 4, 3, 3, 3, 3, 3, 3, 2, 2, 2, 2, 2, 2, 1, 1, 1, 1, 1, 1, 4, 4, 3, 2, 2, 1, 3, 3, 3, 3, 3, 3, 5, 4, 3, 3, 3, 2, 3, 3, 3, 2, 2, 2, 5, 4, 3, 3, 3, 2, 2, 2, 2, 2, 2, 2, 4, 4, 4, 4, 4, 4, 2, 2, 2, 1, 1, 1, 4, 3, 3, 3, 1, 1, 3, 3, 3, 3, 3, 3, 4, 4, 4, 4, 3, 3, 3, 3, 3, 3, 3, 3, 2, 2, 2, 2, 2, 2, 4, 3, 3, 3, 3, 3, 4, 4, 4, 4, 4, 4, 4, 4, 4, 4, 3, 3, 5, 4, 4, 4, 4, 4, 1, 1, 1, 1, 1, 1, 4, 3, 3, 2, 1, 1, 1, 1, 1, 1, 1, 1, 3, 3, 2, 2, 2, 1, 3, 2, 2, 2, 2, 2, 4, 4, 4, 4, 3, 3, 4, 3, 3, 2, 2, 1, 3, 3, 3, 3, 3, 3, 5, 4, 4, 3, 3, 3, 3, 2, 2, 2, 2, 2, 4, 3, 3, 3, 3, 3, 2, 2, 2, 1, 1, 1, 4, 4, 4, 3, 2, 2, 5, 4, 4, 4, 4, 4, 3, 3, 3, 2, 2, 1, 4, 4, 4, 4, 4, 4, 4, 4, 3, 2, 1, 1, 5, 4, 4, 4, 3, 3, 3, 3, 3, 3, 3, 3, 4, 4, 4, 4, 4, 4, 2, 2, 2, 2, 2, 2, 5, 5, 5, 5, 5, 5, 4, 3, 3, 3, 2, 2, 3, 3, 3, 3, 2, 2, 5, 3, 3, 3, 2, 1, 2, 2, 2, 2, 2, 2, 4, 4, 3, 3, 1, 1, 4, 3, 3, 3, 3, 3, 3, 3, 3, 3, 3, 3, 2, 2, 2, 2, 2, 2, 2, 2, 2, 2, 1, 1, 2, 2, 2, 2, 2, 2, 2, 1, 1, 1, 1, 1, 1, 1, 1, 1, 1, 1, 4, 4, 4, 4, 4, 4, 1, 1, 1, 1, 1, 1, 5, 3, 3, 3, 2, 1, 4, 4, 4, 4, 4, 4, 5, 4, 4, 4, 3, 3, 2, 2, 2, 2, 2, 2, 4, 4, 4, 3, 3, 3, 5, 4, 3, 3, 2, 1, 5, 5, 5, 5, 5, 5, 5, 4, 4, 3, 3, 3, 1, 1, 1, 1, 1, 1, 4, 3, 3, 3, 3, 3, 5, 5, 5, 5, 5, 5, 2, 2, 2, 2, 2, 2, 1, 1, 1, 1, 1, 1, 1, 1, 1, 1, 1, 1, 5, 4, 4, 4, 3, 3, 3, 3, 2, 2, 1, 1, 1, 1, 1, 1, 1, 1, 4, 3, 2, 2, 2, 1, 2, 2, 2, 1, 1, 1, 4, 4, 4, 3, 3, 3, 4, 4, 4, 4, 4, 4, 5, 4, 4, 4, 4, 4, 3, 2, 2, 2, 2, 2, 5, 4, 3, 3, 2, 2, 3, 3, 3, 3, 2, 2, 4, 3, 2, 2, 1, 1, 3, 3, 3, 3, 2, 2, 5, 4, 4, 4, 4, 4, 4, 3, 3, 2, 2, 2, 4, 4, 3, 2, 1, 1, 3, 3, 3, 3, 3, 3, 5, 4, 4, 3, 2, 2, 3, 3, 3, 2, 1, 1, 3, 3, 2, 2, 1, 1, 2, 2, 2, 2, 2, 2, 2, 2, 2, 2, 2, 2, 4, 3, 3, 2, 2, 2, 4, 4, 4, 4, 4, 4, 2, 2, 2, 2, 2, 2, 4, 3, 3, 2, 2, 2, 4, 4, 3, 3, 2, 1, 4, 4, 4, 4, 4, 4
 |3, 3, 2, 2, 2, 1, 2, 1, 1, 1, 1, 1, 4, 4, 4, 4, 3, 3, 5, 3, 3, 3, 2, 1, 3, 2, 2, 2, 2, 2, 4, 3, 3, 3, 2, 2, 2, 2, 2, 2, 2, 2, 4, 3, 3, 3, 2, 2, 3, 2, 2, 2, 2, 2, 3, 3, 3, 3, 3, 3, 5, 4, 4, 3, 3, 3, 3, 2, 2, 1, 1, 1, 5, 4, 4, 4, 4, 4, 4, 4, 4, 3, 3, 2, 1, 1, 1, 1, 1, 1, 4, 4, 4, 4, 4, 4, 3, 3, 3, 3, 3, 3, 2, 2, 2, 2, 1, 1, 3, 3, 3, 3, 3, 3, 1, 1, 1, 1, 1, 1, 3, 2, 2, 2, 2, 2, 4, 3, 3, 2, 2, 2, 1, 1, 1, 1, 1, 1, 5, 4, 4, 4, 3, 3, 4, 3, 3, 3, 3, 3, 4, 4, 4, 4, 4, 4, 3, 3, 3, 3, 3, 3, 4, 4, 4, 4, 3, 3, 3, 2, 2, 1, 1, 1, 4, 4, 4, 3, 3, 3, 4, 3, 3, 2, 2, 2, 5, 4, 3, 3, 3, 2, 2, 2, 2, 1, 1, 1, 2, 2, 2, 2, 2, 2, 3, 3, 3, 2, 2, 2, 4, 4, 4, 3, 2, 2, 4, 4, 4, 4, 3, 3, 5, 4, 4, 4, 4, 4, 3, 3, 3, 2, 2, 2, 4, 3, 3, 3, 2, 2, 1, 1, 1, 1, 1, 1, 2, 2, 2, 2, 2, 2, 2, 2, 2, 2, 2, 2, 5, 4, 4, 4, 4, 4, 1, 1, 1, 1, 1, 1, 3, 2, 2, 2, 2, 2, 3, 3, 3, 3, 3, 3, 3, 2, 2, 1, 1, 1, 2, 1, 1, 1, 1, 1, 3, 3, 3, 3, 3, 3, 4, 4, 4, 4, 4, 4, 3, 2, 2, 2, 2, 2, 3, 2, 2, 2, 1, 1, 3, 3, 3, 2, 2, 1, 5, 4, 3, 3, 2, 1, 5, 4, 4, 3, 2, 2, 3, 3, 3, 3, 3, 3, 3, 3, 3, 2, 2, 2, 3, 3, 3, 2, 1, 1, 1, 1, 1, 1, 1, 1, 4, 4, 3, 3, 2, 2, 3, 3, 3, 3, 3, 3, 4, 4, 4, 4, 4, 4, 3, 3, 2, 2, 1, 1, 3, 3, 3, 2, 2, 1, 4, 4, 4, 4, 4, 4, 5, 4, 4, 4, 4, 4, 4, 4, 4, 3, 3, 2, 3, 3, 3, 3, 3, 3, 3, 2, 2, 2, 2, 2, 4, 4, 4, 4, 4, 4, 4, 4, 4, 4, 4, 4, 5, 4, 3, 2, 1, 1, 4, 4, 4, 3, 2, 2, 4, 4, 4, 4, 3, 3, 5, 5, 5, 5, 5, 5, 2, 2, 2, 2, 2, 2, 4, 3, 3, 3, 3, 3, 2, 1, 1, 1, 1, 1, 3, 3, 2, 2, 2, 1, 2, 1, 1, 1, 1, 1, 1, 1, 1, 1, 1, 1, 5, 4, 3, 2, 1, 1, 5, 5, 5, 5, 5, 5, 4, 4, 4, 3, 3, 3, 4, 4, 4, 3, 3, 3, 3, 3, 3, 3, 3, 3, 5, 4, 4, 4, 4, 4, 3, 3, 3, 3, 3, 3, 3, 3, 2, 2, 2, 1, 5, 4, 3, 3, 3, 2, 3, 3, 3, 3, 2, 2, 1, 1, 1, 1, 1, 1, 5, 3, 3, 3, 2, 1, 2, 2, 2, 2, 2, 2, 3, 3, 3, 2, 2, 1, 3, 3, 3, 2, 2, 2, 4, 4, 4, 4, 4, 4, 5, 4, 4, 4, 4, 4, 4, 3, 3, 2, 2, 1
 |4, 3, 3, 3, 3, 3, 10, 10, 9, 7, 7, 6, 10, 10, 10, 10, 9, 9, 16, 13, 11, 7, 6, 3, 12, 8, 7, 5, 4, 1, 15, 14, 10, 8, 6, 6, 20, 17, 12, 10, 7, 7, 17, 16, 16, 16, 15, 15, 17, 16, 15, 13, 12, 12, 8, 7, 6, 6, 6, 5, 19, 17, 15, 12, 12, 8, 19, 18, 18, 17, 17, 17, 14, 14, 12, 9, 8, 4, 13, 12, 10, 8, 7, 6, 16, 14, 12, 11, 10, 8, 9, 9, 8, 7, 4, 3, 13, 9, 8, 8, 6, 4, 19, 15, 11, 8, 7, 3, 3, 2, 2, 2, 1, 1, 11, 9, 8, 7, 6, 5, 14, 14, 14, 13, 12, 12, 17, 17, 15, 15, 13, 13, 17, 17, 15, 11, 9, 7, 8, 8, 7, 6, 5, 4, 18, 14, 10, 7, 5, 2, 9, 9, 7, 6, 4, 4, 16, 15, 15, 13, 12, 9, 15, 15, 15, 15, 15, 15, 15, 11, 9, 7, 5, 5, 17, 17, 14, 10, 10, 7, 18, 16, 12, 7, 6, 3, 17, 14, 14, 11, 7, 5, 17, 16, 16, 14, 14, 13, 17, 17, 15, 15, 13, 13, 19, 14, 12, 9, 7, 6, 14, 12, 11, 11, 10, 9, 14, 13, 13, 13, 13, 13, 13, 12, 8, 6, 3, 1, 19, 16, 12, 9, 9, 6, 6, 6, 5, 5, 3, 3, 14, 10, 9, 7, 5, 3, 6, 6, 5, 5, 3, 3, 16, 15, 10, 9, 3, 2, 17, 13, 12, 10, 7, 5, 14, 10, 8, 6, 4, 3, 16, 14, 14, 10, 8, 7, 11, 11, 9, 9, 8, 7, 17, 15, 9, 9, 4, 3, 11, 10, 10, 10, 9, 8, 14, 12, 9, 8, 5, 4, 20, 19, 19, 19, 19, 19, 14, 11, 11, 8, 8, 7, 12, 11, 10, 10, 9, 8, 15, 12, 11, 9, 7, 6, 11, 9, 7, 4, 2, 1, 6, 6, 6, 6, 5, 5, 15, 13, 11, 11, 7, 4, 19, 15, 13, 11, 11, 8, 13, 13, 13, 13, 13, 13, 18, 18, 18, 18, 17, 17, 18, 18, 17, 17, 16, 15, 11, 10, 10, 10, 9, 8, 6, 6, 5, 5, 4, 3, 17, 17, 13, 11, 9, 8, 9, 8, 8, 8, 8, 8, 8, 7, 7, 6, 6, 5, 19, 17, 17, 16, 14, 14, 10, 9, 9, 9, 9, 9, 7, 5, 4, 4, 3, 2, 18, 18, 17, 16, 16, 15, 18, 16, 14, 12, 11, 10, 18, 18, 14, 13, 11, 10, 11, 10, 10, 9, 9, 8, 18, 18, 16, 12, 10, 10, 9, 9, 9, 9, 8, 8, 19, 13, 12, 9, 7, 4, 10, 9, 6, 5, 3, 1, 16, 14, 12, 9, 7, 3, 11, 10, 10, 10, 9, 9, 17, 16, 16, 14, 14, 13, 15, 13, 11, 7, 6, 4, 9, 8, 7, 7, 7, 6, 13, 12, 12, 12, 11, 10, 13, 11, 9, 6, 3, 2, 13, 13, 11, 11, 10, 9, 7, 6, 5, 4, 2, 2, 6, 5, 4, 4, 3, 3, 18, 17, 16, 13, 13, 11, 16, 16, 15, 15, 14, 14, 7, 7, 7, 7, 7, 7, 19, 17, 16, 16, 14, 13, 9, 9, 9, 8, 8, 7, 19, 19, 19, 19, 19, 19, 19, 16, 16, 15, 14, 12, 8, 6, 5, 5, 3, 3, 12, 11, 11, 9, 8, 7, 8, 5, 5, 4, 2, 2, 14, 12, 9, 8, 5, 5, 9, 7, 6, 5, 4, 3, 13, 13, 11, 6, 5, 3
 |12, 11, 10, 9, 8, 7, 12, 10, 10, 9, 8, 6, 15, 13, 13, 11, 10, 8, 18, 17, 17, 17, 17, 17, 13, 13, 9, 7, 3, 3, 17, 15, 15, 14, 13, 11, 14, 14, 14, 14, 14, 14, 10, 8, 7, 4, 4, 1, 17, 15, 15, 14, 12, 11, 15, 15, 15, 15, 15, 15, 18, 14, 10, 9, 7, 2, 11, 11, 9, 9, 8, 7, 5, 5, 5, 5, 5, 5, 20, 20, 20, 20, 20, 20, 4, 4, 4, 4, 4, 4, 20, 19, 19, 19, 19, 19, 16, 15, 14, 11, 11, 9, 16, 11, 9, 7, 5, 4, 14, 13, 12, 11, 10, 10, 18, 17, 16, 13, 12, 9, 17, 16, 14, 13, 12, 11, 3, 3, 3, 3, 3, 3, 3, 3, 3, 3, 2, 2, 18, 18, 16, 14, 13, 11, 15, 13, 9, 8, 6, 3, 7, 7, 6, 6, 6, 5, 17, 13, 11, 10, 7, 4, 4, 4, 4, 4, 3, 3, 18, 18, 18, 18, 18, 18, 12, 12, 12, 12, 11, 11, 17, 13, 13, 11, 7, 5, 10, 9, 8, 8, 8, 7, 8, 7, 7, 7, 6, 6, 13, 13, 13, 13, 13, 13, 17, 17, 17, 17, 17, 17, 14, 13, 13, 12, 10, 10, 15, 13, 10, 10, 8, 6, 13, 12, 11, 10, 9, 8, 8, 7, 7, 7, 7, 7, 17, 14, 12, 11, 10, 7, 11, 8, 6, 4, 3, 1, 7, 7, 7, 7, 6, 6, 7, 5, 5, 4, 3, 3, 8, 6, 6, 4, 3, 2, 16, 16, 16, 16, 16, 16, 3, 3, 3, 3, 3, 3, 19, 19, 19, 18, 18, 17, 10, 10, 9, 8, 8, 7, 8, 6, 6, 5, 5, 4, 18, 18, 17, 16, 16, 15, 16, 13, 11, 10, 6, 3, 8, 6, 5, 5, 3, 3, 9, 8, 8, 8, 8, 8, 14, 13, 12, 12, 11, 11, 8, 7, 7, 6, 5, 5, 16, 15, 13, 12, 10, 7, 17, 16, 15, 15, 12, 11, 14, 13, 12, 12, 10, 10, 12, 11, 11, 10, 10, 10, 18, 13, 12, 7, 6, 3, 9, 9, 8, 6, 6, 5, 15, 13, 10, 8, 5, 2, 17, 12, 12, 6, 4, 1, 12, 12, 12, 12, 12, 12, 18, 16, 15, 12, 11, 9, 12, 11, 11, 8, 8, 7, 16, 15, 14, 13, 12, 11, 12, 9, 9, 7, 6, 3, 11, 10, 9, 7, 5, 4, 18, 18, 18, 18, 18, 18, 18, 16, 15, 14, 14, 13, 16, 11, 11, 7, 3, 1, 19, 18, 17, 17, 15, 15, 14, 14, 12, 8, 7, 4, 17, 16, 16, 15, 14, 14, 16, 12, 12, 10, 8, 5, 17, 14, 12, 10, 10, 7, 13, 13, 12, 12, 12, 11, 19, 17, 17, 16, 15, 15, 17, 17, 17, 16, 15, 15, 19, 16, 10, 9, 5, 4, 16, 14, 12, 10, 8, 5, 17, 16, 15, 15, 15, 14, 19, 19, 19, 19, 19, 19, 16, 15, 15, 15, 14, 14, 14, 13, 13, 11, 10, 10, 12, 12, 12, 12, 12, 12, 18, 17, 16, 16, 15, 15, 17, 16, 15, 12, 11, 9, 12, 12, 12, 11, 10, 10, 19, 15, 13, 11, 10, 9, 18, 18, 18, 18, 18, 18, 15, 13, 13, 12, 11, 11, 6, 5, 4, 4, 4, 3, 17, 13, 10, 8, 5, 3, 10, 9, 9, 8, 7, 6, 17, 14, 12, 10, 6, 5, 12, 12, 10, 10, 8, 8, 3, 3, 3, 3, 2, 2, 12, 11, 10, 9, 7, 6
 |16, 16, 15, 14, 12, 10, 12, 11, 11, 10, 8, 8, 12, 9, 6, 5, 2, 1, 18, 18, 17, 16, 14, 13, 1, 1, 1, 1, 1, 1, 9, 8, 5, 5, 3, 2, 14, 13, 13, 13, 12, 12, 6, 5, 4, 3, 2, 2, 13, 12, 11, 11, 10, 10, 20, 19, 19, 18, 18, 18, 18, 17, 17, 17, 17, 17, 13, 12, 10, 10, 9, 8, 11, 11, 9, 8, 8, 6, 10, 8, 6, 6, 4, 3, 16, 15, 15, 15, 15, 15, 15, 14, 11, 11, 7, 5, 7, 7, 5, 4, 3, 3, 18, 17, 16, 15, 13, 11, 5, 5, 5, 5, 4, 4, 8, 6, 5, 4, 3, 3, 11, 10, 9, 9, 7, 7, 16, 14, 13, 11, 10, 10, 17, 15, 14, 11, 11, 10, 6, 5, 4, 4, 4, 3, 9, 9, 8, 6, 6, 4, 17, 15, 13, 10, 8, 5, 17, 16, 12, 11, 7, 5, 15, 13, 13, 10, 7, 6, 15, 12, 12, 9, 5, 2, 1, 1, 1, 1, 1, 1, 14, 12, 10, 9, 8, 6, 15, 14, 13, 11, 9, 9, 10, 9, 7, 5, 2, 1, 13, 11, 11, 9, 8, 8, 9, 6, 6, 3, 2, 1, 16, 14, 14, 13, 12, 12, 19, 17, 17, 17, 15, 15, 17, 17, 16, 14, 13, 13, 17, 17, 16, 15, 13, 13, 19, 17, 17, 15, 15, 14, 7, 6, 6, 6, 6, 6, 5, 4, 4, 3, 3, 3, 10, 10, 10, 9, 8, 8, 8, 8, 8, 8, 8, 8, 11, 10, 10, 7, 7, 5, 11, 9, 7, 5, 2, 2, 18, 17, 16, 14, 14, 12, 18, 17, 15, 15, 13, 13, 11, 11, 10, 10, 9, 9, 16, 12, 11, 7, 4, 3, 4, 3, 2, 2, 1, 1, 19, 18, 18, 18, 17, 17, 14, 12, 11, 7, 6, 3, 15, 14, 12, 8, 7, 6, 17, 17, 17, 17, 17, 17, 15, 14, 14, 14, 14, 14, 19, 18, 18, 18, 17, 16, 11, 10, 8, 6, 5, 4, 9, 8, 6, 6, 4, 4, 14, 11, 9, 7, 5, 5, 13, 13, 13, 12, 12, 11, 9, 9, 7, 6, 5, 4, 16, 14, 13, 7, 6, 3, 17, 12, 11, 9, 4, 2, 11, 9, 8, 5, 4, 3, 7, 6, 6, 5, 5, 5, 17, 16, 11, 7, 5, 4, 11, 10, 10, 10, 10, 10, 7, 6, 5, 5, 3, 1, 16, 16, 15, 13, 12, 11, 19, 16, 14, 13, 12, 10, 18, 17, 14, 14, 12, 10, 10, 9, 8, 8, 7, 6, 9, 9, 9, 8, 8, 8, 7, 7, 7, 7, 7, 7, 15, 14, 14, 13, 12, 12, 16, 15, 14, 12, 12, 11, 19, 19, 19, 19, 18, 18, 7, 5, 5, 5, 4, 3, 14, 12, 10, 8, 8, 5, 18, 14, 12, 8, 5, 3, 13, 12, 11, 9, 9, 8, 18, 18, 16, 16, 13, 13, 15, 14, 13, 12, 10, 10, 19, 19, 19, 19, 19, 19, 9, 7, 5, 4, 2, 1, 16, 16, 16, 16, 15, 15, 6, 5, 5, 5, 4, 4, 17, 16, 15, 14, 12, 11, 9, 7, 6, 5, 3, 2, 3, 3, 2, 2, 1, 1, 8, 7, 7, 7, 6, 6, 15, 15, 15, 15, 15, 15, 7, 6, 6, 5, 5, 4, 12, 11, 11, 10, 8, 8, 10, 8, 6, 5, 3, 3, 19, 14, 12, 10, 7, 5, 14, 14, 12, 8, 6, 4, 10, 10, 10, 9, 9, 9, 18, 17, 13, 11, 8, 5
 |14, 13, 11, 9, 8, 7, 12, 12, 12, 11, 11, 11, 19, 15, 13, 8, 7, 5, 16, 16, 16, 15, 15, 15, 19, 15, 15, 12, 11, 10, 10, 10, 10, 9, 9, 9, 13, 12, 10, 10, 8, 7, 9, 8, 7, 6, 6, 5, 19, 18, 17, 16, 15, 14, 10, 8, 8, 7, 4, 4, 16, 15, 12, 11, 8, 7, 13, 13, 13, 13, 13, 13, 12, 11, 9, 8, 8, 7, 16, 15, 15, 14, 12, 12, 11, 11, 11, 11, 11, 11, 11, 10, 10, 8, 7, 7, 19, 17, 17, 15, 14, 11, 17, 17, 17, 17, 17, 17, 8, 7, 7, 6, 6, 5, 16, 14, 14, 13, 9, 8, 12, 10, 9, 6, 5, 3, 10, 10, 10, 10, 10, 9, 19, 19, 19, 18, 18, 17, 8, 7, 7, 6, 5, 5, 15, 11, 8, 7, 6, 1, 18, 16, 15, 12, 10, 9, 18, 17, 16, 16, 14, 14, 11, 10, 9, 9, 7, 7, 16, 13, 13, 10, 10, 9, 12, 11, 11, 11, 10, 10, 17, 17, 15, 13, 12, 12, 10, 8, 8, 8, 7, 6, 16, 15, 14, 12, 11, 9, 18, 14, 12, 9, 6, 5, 11, 10, 10, 8, 7, 7, 13, 10, 9, 8, 7, 5, 4, 3, 3, 3, 3, 3, 19, 15, 14, 10, 9, 8, 19, 18, 14, 14, 10, 9, 15, 15, 11, 11, 9, 5, 18, 15, 13, 13, 12, 10, 4, 4, 4, 4, 3, 2, 5, 5, 5, 4, 3, 3, 14, 14, 10, 10, 6, 6, 14, 11, 11, 9, 8, 5, 19, 19, 19, 18, 17, 17, 14, 12, 9, 7, 4, 3, 4, 4, 4, 3, 3, 3, 6, 6, 5, 5, 4, 4, 18, 16, 15, 14, 12, 10, 17, 16, 14, 14, 11, 11, 14, 13, 9, 9, 4, 3, 13, 13, 13, 12, 12, 12, 6, 5, 4, 4, 3, 3, 9, 9, 7, 7, 6, 5, 13, 10, 9, 8, 6, 3, 17, 17, 17, 16, 17, 17, 18, 17, 17, 16, 16, 15, 12, 9, 8, 6, 6, 3, 16, 15, 14, 14, 14, 13, 12, 10, 8, 6, 5, 3, 19, 18, 17, 17, 16, 16, 17, 16, 16, 16, 16, 16, 12, 8, 8, 4, 3, 1, 18, 17, 16, 13, 12, 12, 5, 5, 4, 4, 3, 4, 10, 8, 7, 6, 3, 2, 14, 14, 13, 11, 10, 10, 17, 15, 13, 12, 10, 9, 16, 15, 10, 7, 4, 3, 16, 16, 12, 10, 5, 2, 14, 12, 10, 9, 7, 5, 18, 16, 15, 13, 11, 9, 13, 10, 9, 6, 6, 4, 18, 17, 16, 16, 14, 13, 19, 14, 14, 10, 7, 4, 10, 7, 6, 6, 4, 4, 16, 13, 10, 10, 7, 4, 8, 6, 5, 4, 4, 3, 14, 14, 14, 14, 14, 14, 20, 19, 19, 19, 19, 19, 9, 8, 8, 8, 6, 6, 9, 9, 8, 6, 5, 3, 16, 16, 16, 15, 15, 14, 10, 9, 7, 5, 3, 3, 14, 14, 12, 10, 10, 8, 16, 11, 11, 7, 7, 3, 5, 4, 4, 3, 3, 3, 17, 13, 13, 10, 7, 4, 16, 14, 13, 8, 7, 3, 18, 18, 17, 17, 16, 16, 6, 5, 4, 3, 2, 2, 11, 8, 7, 6, 5, 4, 13, 12, 10, 10, 7, 7, 16, 16, 14, 13, 13, 11, 9, 9, 8, 6, 6, 5, 17, 11, 9, 9, 6, 3, 12, 10, 8, 8, 7, 6, 13, 10, 9, 6, 4, 1, 5, 5, 5, 5, 5, 5|];